rc2_10_6

VEHICLE
NUMBER   CAPACITY
250     1000

CUSTOMER
CUST NO. XCOORD.  YCOORD.  DEMAND  READY TIME DUE DATE  SERVICE TIME

0   250    250     0     0    7284     0
773 472 481 20 1246 1486 10
468 494 468 31 1350 1590 10
962 468 475 10 1133 1373 10
104 438 488 18 1249 1489 10
499 477 478 20 1509 1749 10
213 475 480 30 1458 1698 10
999 470 475 30 1181 1421 10
200 475 477 20 1558 1798 10
392 493 493 20 3366 3606 10
3 476 483 10 1359 1599 10
939 470 473 10 1664 1904 10
848 473 475 10 1609 1849 10
949 477 483 20 1403 1643 10
651 489 437 29 2767 3007 10
83 498 456 27 5564 5804 10
290 457 492 7 1972 2212 10
658 469 489 4 2162 2402 10
948 481 454 14 1222 1462 10
443 471 484 10 1299 1539 10
